Academic license - for non-commercial use only
Set parameter TimeLimit to value 43200

Gurobi Optimizer version 8.0.0 build v8.0.0rc0 (linux64)
Copyright (c) 2018, Gurobi Optimization, LLC


ERROR 10003: Unable to open file 'dmu02.lp' for input

